p tw 55 58
1 2
2 13
3 4
4 5
5 6
5 16
6 7
7 8
8 9
9 10
10 11
11 12
12 14
13 24
14 15
15 21
16 17
17 18
18 19
19 20
20 46
21 22
22 23
22 50
23 25
24 35
25 26
26 27
27 28
28 29
29 30
29 31
30 50
31 32
32 33
33 34
34 36
35 46
36 37
37 38
38 39
39 40
40 41
41 42
42 43
43 44
44 45
45 47
46 52
47 48
48 49
49 50
50 51
52 53
52 21
53 54
54 55
55 3
